1579565
5,40,29,24,28,59,22,48,18,4,39,55,31,41,11,60,23,0,53,46,12,19,3,47,1,64,44,26,16,8,57,14,7,67,34,50,38,61,36,52,43,13,9,17,56,32,51,21,30,27,49,35,58,15,62,20,2,37,66,63,6,42,45,33,54,25,65,10
